NAME /Users/henri/Research/solvers/instances/idol-instances/robust/collection/cbp_Subramanyam_et_al_2020/CapBud_N10_16/models/uncertain_technology_matrix/
ROWS
 N  OBJ
 L  capacity
 L  c_985
 L  c_986
 L  c_987
 L  c_988
 L  c_989
 L  c_990
 L  c_991
 L  c_992
 L  c_993
 L  c_994
COLUMNS
    MARKER    'MARKER'                 'INTORG'
    x_0        OBJ        3.28745
    x_0        c_985      1
    x_0        capacity   0.657489
    x_1        OBJ        9.29848
    x_1        c_986      1
    x_1        capacity   1.8597
    x_2        OBJ        7.12523
    x_2        c_987      1
    x_2        capacity   1.42505
    x_3        OBJ        8.12075
    x_3        c_988      1
    x_3        capacity   1.62415
    x_4        OBJ        4.54761
    x_4        c_989      1
    x_4        capacity   0.909523
    x_5        OBJ        3.27263
    x_5        c_990      1
    x_5        capacity   0.654525
    x_6        OBJ        1.38307
    x_6        c_991      1
    x_6        capacity   0.276614
    x_7        OBJ        6.25378
    x_7        c_992      1
    x_7        capacity   1.25076
    x_8        OBJ        6.79835
    x_8        c_993      1
    x_8        capacity   1.35967
    x_9        OBJ        9.30397
    x_9        c_994      1
    x_9        capacity   1.86079
    y_0        OBJ        2.62996
    y_0        c_985      1
    y_0        capacity   0.657489
    y_1        OBJ        7.43878
    y_1        c_986      1
    y_1        capacity   1.8597
    y_2        OBJ        5.70019
    y_2        c_987      1
    y_2        capacity   1.42505
    y_3        OBJ        6.4966
    y_3        c_988      1
    y_3        capacity   1.62415
    y_4        OBJ        3.63809
    y_4        c_989      1
    y_4        capacity   0.909523
    y_5        OBJ        2.6181
    y_5        c_990      1
    y_5        capacity   0.654525
    y_6        OBJ        1.10645
    y_6        c_991      1
    y_6        capacity   0.276614
    y_7        OBJ        5.00303
    y_7        c_992      1
    y_7        capacity   1.25076
    y_8        OBJ        5.43868
    y_8        c_993      1
    y_8        capacity   1.35967
    y_9        OBJ        7.44318
    y_9        c_994      1
    y_9        capacity   1.86079
    MARKER    'MARKER'                 'INTEND'
RHS
    RHS       capacity   29.6957
    RHS       c_985      1
    RHS       c_986      1
    RHS       c_987      1
    RHS       c_988      1
    RHS       c_989      1
    RHS       c_990      1
    RHS       c_991      1
    RHS       c_992      1
    RHS       c_993      1
    RHS       c_994      1
BOUNDS
 LI BND       x_0        0
 UI BND       x_0        1
 LI BND       x_1        0
 UI BND       x_1        1
 LI BND       x_2        0
 UI BND       x_2        1
 LI BND       x_3        0
 UI BND       x_3        1
 LI BND       x_4        0
 UI BND       x_4        1
 LI BND       x_5        0
 UI BND       x_5        1
 LI BND       x_6        0
 UI BND       x_6        1
 LI BND       x_7        0
 UI BND       x_7        1
 LI BND       x_8        0
 UI BND       x_8        1
 LI BND       x_9        0
 UI BND       x_9        1
 LI BND       y_0        0
 UI BND       y_0        1
 LI BND       y_1        0
 UI BND       y_1        1
 LI BND       y_2        0
 UI BND       y_2        1
 LI BND       y_3        0
 UI BND       y_3        1
 LI BND       y_4        0
 UI BND       y_4        1
 LI BND       y_5        0
 UI BND       y_5        1
 LI BND       y_6        0
 UI BND       y_6        1
 LI BND       y_7        0
 UI BND       y_7        1
 LI BND       y_8        0
 UI BND       y_8        1
 LI BND       y_9        0
 UI BND       y_9        1
ENDATA
